NAME : traveling-santa-2018-prime-paths.31104.tour
COMMENT : Length = 31104
COMMENT : Found by LKH [Keld Helsgaun] Sun Jun 12 20:00:30 2022
TYPE : TOUR
DIMENSION : 100
TOUR_SECTION
1
49
21
6
16
95
64
71
41
40
38
89
66
5
100
69
27
18
87
61
50
99
59
77
34
3
58
35
54
42
48
29
93
11
4
26
84
9
19
98
70
60
24
20
97
91
63
68
78
55
83
13
28
90
62
39
43
52
82
25
32
46
81
80
51
79
88
33
22
45
85
15
31
8
44
12
2
37
92
17
47
75
57
10
30
14
56
73
94
96
7
53
72
74
67
36
76
86
23
65
-1
EOF
